(declare-fun var0 () String)
(assert (str.in.re var0 (re.++ (re.+ (re.* (str.to.re "g"))) (re.++ (re.* (re.union (str.to.re "ee") (str.to.re "ff"))) (re.++ (re.+ (re.+ (str.to.re "ddd"))) (re.++ (re.* (re.+ (str.to.re "ccc"))) (re.++ (re.union (re.union (str.to.re "99") (str.to.re "aaa")) (re.* (str.to.re "bbb"))) (re.++ (re.union (re.+ (str.to.re "666")) (re.union (str.to.re "7") (str.to.re "8"))) (re.++ (re.+ (re.+ (str.to.re "555"))) (re.++ (re.* (re.* (str.to.re "4"))) (re.++ (re.+ (re.+ (str.to.re "3"))) (re.union (re.union (str.to.re "00") (str.to.re "11")) (re.+ (str.to.re "22"))))))))))))))
(check-sat)